
Gurobi 10.0.1 (win64) logging started Wed Jan 15 21:37:29 2025

Set parameter LogFile to value "result/origin100/grblog_constrainedNL_strongFalse_logSum100_pnr_origin100_I300_J30_p15_inst9_machineDESKTOP-ASQ3AP9.txt"

Gurobi 10.0.1 (win64) logging started Wed Jan 15 21:37:29 2025

Set parameter LogFile to value "result/origin100/grblog_constrainedNL_strongFalse_logSum100_pnr_origin100_I300_J30_p15_inst9_machineDESKTOP-ASQ3AP9.txt"
Set parameter LazyConstraints to value 1
Gurobi Optimizer version 10.0.1 build v10.0.1rc0 (win64)

CPU model: Intel(R) Core(TM) i7-7700 CPU @ 3.60GHz, instruction set [SSE2|AVX|AVX2]
Thread count: 4 physical cores, 8 logical processors, using up to 8 threads

Optimize a model with 50913 rows, 9360 columns and 147592 nonzeros
Model fingerprint: 0xd0e724c2
Variable types: 9330 continuous, 30 integer (30 binary)
Coefficient statistics:
  Matrix range     [4e-09, 2e+08]
  Objective range  [1e+00, 1e+00]
  Bounds range     [1e+00, 1e+00]
  RHS range        [1e+00, 8e+02]
Warning: Model contains large matrix coefficient range
         Consider reformulating model or setting NumericFocus parameter
         to avoid numerical issues.

User MIP start produced solution with objective 2066 (0.06s)
Loaded user MIP start with objective 2066

Presolve removed 12137 rows and 6055 columns
Presolve time: 0.19s
Presolved: 38776 rows, 3305 columns, 118220 nonzeros
Variable types: 3275 continuous, 30 integer (30 binary)
Root relaxation presolved: 38776 rows, 3305 columns, 118220 nonzeros


Root relaxation: objective 5.040762e+03, 3876 iterations, 1.10 seconds (4.34 work units)

    Nodes    |    Current Node    |     Objective Bounds      |     Work
 Expl Unexpl |  Obj  Depth IntInf | Incumbent    BestBd   Gap | It/Node Time

     0     0 5040.76219    0   28 2065.99563 5040.76219   144%     -    1s
     0     0 3765.25873    0   12 2065.99563 3765.25873  82.2%     -    5s
     0     0 3191.36036    0   20 2065.99563 3191.36036  54.5%     -   14s
     0     0 3187.95494    0   20 2065.99563 3187.95494  54.3%     -   14s
     0     0 3187.95448    0   20 2065.99563 3187.95448  54.3%     -   14s
     0     0 3081.30737    0   23 2065.99563 3081.30737  49.1%     -   17s
     0     0 3079.38478    0   23 2065.99563 3079.38478  49.1%     -   18s
     0     0 3078.95253    0   23 2065.99563 3078.95253  49.0%     -   18s
     0     0 3078.77811    0   23 2065.99563 3078.77811  49.0%     -   18s
     0     0 2993.94952    0   24 2065.99563 2993.94952  44.9%     -   21s
     0     0 2987.13501    0   24 2065.99563 2987.13501  44.6%     -   22s
     0     0 2985.46090    0   25 2065.99563 2985.46090  44.5%     -   22s
     0     0 2984.85063    0   25 2065.99563 2984.85063  44.5%     -   23s
     0     0 2984.77661    0   25 2065.99563 2984.77661  44.5%     -   23s
     0     0 2934.77995    0   27 2065.99563 2934.77995  42.1%     -   26s
     0     0 2930.83120    0   26 2065.99563 2930.83120  41.9%     -   27s
     0     0 2929.93111    0   27 2065.99563 2929.93111  41.8%     -   27s
     0     0 2929.61121    0   27 2065.99563 2929.61121  41.8%     -   27s
     0     0 2918.66954    0   27 2065.99563 2918.66954  41.3%     -   29s
     0     0 2918.66954    0   27 2065.99563 2918.66954  41.3%     -   30s
     0     0 2701.30407    0   24 2065.99563 2701.30407  30.8%     -   33s
     0     0 2683.32018    0   25 2065.99563 2683.32018  29.9%     -   34s
     0     0 2680.30936    0   24 2065.99563 2680.30936  29.7%     -   35s
     0     0 2679.51234    0   24 2065.99563 2679.51234  29.7%     -   35s
     0     0 2679.29404    0   24 2065.99563 2679.29404  29.7%     -   35s
     0     0 2547.08756    0   27 2065.99563 2547.08756  23.3%     -   39s
     0     0 2543.81099    0   27 2065.99563 2543.81099  23.1%     -   40s
     0     0 2543.11273    0   27 2065.99563 2543.11273  23.1%     -   40s
     0     0 2543.03686    0   27 2065.99563 2543.03686  23.1%     -   40s
     0     0 2484.97375    0   27 2065.99563 2484.97375  20.3%     -   42s
     0     0 2481.94807    0   27 2065.99563 2481.94807  20.1%     -   44s
     0     0 2481.06527    0   28 2065.99563 2481.06527  20.1%     -   44s
     0     0 2480.89784    0   28 2065.99563 2480.89784  20.1%     -   44s
     0     0 2464.42290    0   27 2065.99563 2464.42290  19.3%     -   46s
     0     0 2369.36114    0   25 2065.99563 2369.36114  14.7%     -   48s
     0     0 2349.41989    0   27 2065.99563 2349.41989  13.7%     -   49s
     0     0 2347.29004    0   27 2065.99563 2347.29004  13.6%     -   49s
     0     0 2347.13148    0   27 2065.99563 2347.13148  13.6%     -   50s
     0     0 2323.69015    0   26 2065.99563 2323.69015  12.5%     -   52s
     0     0 2322.18493    0   27 2065.99563 2322.18493  12.4%     -   53s
     0     0 2321.41772    0   28 2065.99563 2321.41772  12.4%     -   53s
     0     0 2321.36982    0   28 2065.99563 2321.36982  12.4%     -   53s
     0     0 2313.87994    0   28 2065.99563 2313.87994  12.0%     -   55s
     0     0 2312.63688    0   27 2065.99563 2312.63688  11.9%     -   56s
     0     0 2312.35661    0   27 2065.99563 2312.35661  11.9%     -   56s
     0     0 2296.62072    0   26 2065.99563 2296.62072  11.2%     -   57s
     0     0 2294.66195    0   27 2065.99563 2294.66195  11.1%     -   58s
     0     0 2294.31317    0   27 2065.99563 2294.31317  11.1%     -   58s
     0     0 2291.01880    0   27 2065.99563 2291.01880  10.9%     -   59s
     0     0 2290.81895    0   27 2065.99563 2290.81895  10.9%     -   60s
     0     0 2286.26675    0   27 2065.99563 2286.26675  10.7%     -   61s
     0     0 2266.90664    0   24 2065.99563 2266.90664  9.72%     -   67s
     0     2 2266.90664    0   24 2065.99563 2266.90664  9.72%     -   69s
     1     4 2262.71628    1   23 2065.99563 2266.76338  9.72%   364   70s
    11    16 2216.62554    3   25 2065.99563 2254.70696  9.13%  1184   75s
    19    24 2087.86501    4   24 2065.99563 2220.58884  7.48%  1701   81s
    23    28 2107.50935    5   18 2065.99563 2217.88062  7.35%  1791   85s
    36    42 2144.44664    6   20 2065.99563 2217.88062  7.35%  1649   90s
    68    64     cutoff   11      2065.99563 2217.88062  7.35%  1100   95s
    93    69 2111.57408    5   20 2065.99563 2217.88062  7.35%   979  101s
   109    72 2106.70376    6   19 2065.99563 2217.88062  7.35%   954  105s
   130    76 2079.86620    7   18 2065.99563 2217.88062  7.35%   897  110s
   161    80     cutoff    5      2065.99563 2202.07466  6.59%   815  116s
   188    71 2077.80985    8   15 2065.99563 2134.95973  3.34%   774  121s
   210    74 2073.81635   11   12 2065.99563 2128.58774  3.03%   744  127s
   239    74     cutoff    9      2065.99563 2124.10546  2.81%   690  130s
   286    67 2067.51647    8   17 2065.99563 2108.43435  2.05%   633  135s
   323    63     cutoff   13      2065.99563 2101.46802  1.72%   607  140s
*  367    57              21    2065.9997216 2096.30187  1.47%   566  143s
   379    47     cutoff   11      2065.99972 2094.04576  1.36%   559  155s
   391    37     cutoff    8      2065.99972 2087.25449  1.03%   590  171s
   423    14     cutoff    9      2065.99972 2081.59160  0.75%   612  179s
   447     1     cutoff    9      2065.99972 2071.36963  0.26%   607  182s

Cutting planes:
  Implied bound: 123
  MIR: 301
  Flow cover: 347
  RLT: 650
  Relax-and-lift: 56
  Lazy constraints: 1553

Explored 461 nodes (364878 simplex iterations) in 182.97 seconds (604.09 work units)
Thread count was 8 (of 8 available processors)

Solution count 1: 2066 

Optimal solution found (tolerance 1.00e-04)
Best objective 2.065999721609e+03, best bound 2.065999721609e+03, gap 0.0000%

User-callback calls 11521, time in user-callback 0.55 sec
